language Essence 1.3

letting blksize_delta be
        function(1 --> 10, 2 --> 10, 3 --> 10, 4 --> 10, 5 --> 10, 6 --> 10, 7 --> 10, 8 --> 10, 9 --> 10, 10 --> 10,
                 11 --> 10, 12 --> 10, 13 --> 10, 14 --> 10, 15 --> 10, 16 --> 10, 17 --> 10, 18 --> 10, 19 --> 10,
                 20 --> 10, 21 --> 10, 22 --> 10, 23 --> 10, 24 --> 10, 25 --> 10, 26 --> 10, 27 --> 10, 28 --> 10,
                 29 --> 10, 30 --> 10, 31 --> 10, 32 --> 10, 33 --> 10, 34 --> 10, 35 --> 10, 36 --> 10, 37 --> 10,
                 38 --> 10, 39 --> 10, 40 --> 10, 41 --> 10, 42 --> 10, 43 --> 10, 44 --> 10, 45 --> 10, 46 --> 10,
                 47 --> 10, 48 --> 10, 49 --> 10, 50 --> 10, 51 --> 10, 52 --> 10, 53 --> 10)
letting maxcars be
        function(1 --> 10, 2 --> 8, 3 --> 8, 4 --> 8, 5 --> 9, 6 --> 8, 7 --> 8, 8 --> 10, 9 --> 8, 10 --> 8, 11 --> 8,
                 12 --> 8, 13 --> 8, 14 --> 8, 15 --> 8, 16 --> 8, 17 --> 8, 18 --> 8, 19 --> 8, 20 --> 8, 21 --> 8,
                 22 --> 8, 23 --> 8, 24 --> 8, 25 --> 8, 26 --> 8, 27 --> 8, 28 --> 8, 29 --> 8, 30 --> 8, 31 --> 8,
                 32 --> 8, 33 --> 8, 34 --> 10, 35 --> 8, 36 --> 8, 37 --> 8, 38 --> 8, 39 --> 8, 40 --> 8, 41 --> 8,
                 42 --> 8, 43 --> 8, 44 --> 9, 45 --> 8, 46 --> 8, 47 --> 8, 48 --> 8, 49 --> 8, 50 --> 8, 51 --> 8,
                 52 --> 8, 53 --> 8)
letting n_cars be 168
letting n_classes be 16
letting n_options be 53
letting quantity be
        function(1 --> 10, 2 --> 10, 3 --> 10, 4 --> 12, 5 --> 10, 6 --> 10, 7 --> 10, 8 --> 10, 9 --> 10, 10 --> 10,
                 11 --> 12, 12 --> 12, 13 --> 10, 14 --> 10, 15 --> 10, 16 --> 12)
letting usage be
        relation((1, 6), (1, 17), (1, 37), (1, 47), (1, 51), (1, 53), (2, 1), (2, 37), (2, 40), (2, 47), (2, 53),
                 (3, 3), (3, 7), (3, 31), (3, 36), (3, 44), (3, 47), (3, 51), (4, 15), (4, 33), (4, 34), (5, 4), (5, 9),
                 (5, 12), (5, 13), (5, 24), (5, 27), (5, 51), (6, 9), (6, 12), (6, 15), (6, 40), (7, 9), (7, 11),
                 (7, 19), (7, 26), (7, 35), (7, 40), (7, 45), (8, 3), (8, 26), (8, 38), (8, 44), (9, 10), (9, 16),
                 (9, 32), (9, 37), (9, 41), (10, 8), (10, 9), (10, 16), (10, 26), (10, 48), (10, 51), (11, 10),
                 (11, 18), (11, 32), (11, 44), (11, 48), (11, 53), (12, 8), (12, 13), (12, 16), (12, 23), (12, 30),
                 (12, 31), (12, 34), (12, 43), (13, 12), (13, 29), (13, 30), (13, 31), (13, 44), (13, 45), (14, 16),
                 (14, 49), (14, 51), (14, 53), (15, 2), (15, 5), (15, 9), (15, 14), (15, 20), (15, 21), (15, 22),
                 (15, 25), (15, 27), (15, 28), (15, 33), (15, 35), (15, 42), (15, 46), (15, 50), (15, 52), (16, 11),
                 (16, 23), (16, 39), (16, 44))
$ Visualisation for usage
$  1  6
$  1 17
$  1 37
$  1 47
$  1 51
$  1 53
$  2  1
$  2 37
$  2 40
$  2 47
$  2 53
$  3  3
$  3  7
$  3 31
$  3 36
$  3 44
$  3 47
$  3 51
$  4 15
$  4 33
$  4 34
$  5  4
$  5  9
$  5 12
$  5 13
$  5 24
$  5 27
$  5 51
$  6  9
$  6 12
$  6 15
$  6 40
$  7  9
$  7 11
$  7 19
$  7 26
$  7 35
$  7 40
$  7 45
$  8  3
$  8 26
$  8 38
$  8 44
$  9 10
$  9 16
$  9 32
$  9 37
$  9 41
$ 10  8
$ 10  9
$ 10 16
$ 10 26
$ 10 48
$ 10 51
$ 11 10
$ 11 18
$ 11 32
$ 11 44
$ 11 48
$ 11 53
$ 12  8
$ 12 13
$ 12 16
$ 12 23
$ 12 30
$ 12 31
$ 12 34
$ 12 43
$ 13 12
$ 13 29
$ 13 30
$ 13 31
$ 13 44
$ 13 45
$ 14 16
$ 14 49
$ 14 51
$ 14 53
$ 15  2
$ 15  5
$ 15  9
$ 15 14
$ 15 20
$ 15 21
$ 15 22
$ 15 25
$ 15 27
$ 15 28
$ 15 33
$ 15 35
$ 15 42
$ 15 46
$ 15 50
$ 15 52
$ 16 11
$ 16 23
$ 16 39
$ 16 44

